(set-logic QF_S)
(declare-fun var0 () String)
(declare-fun var1 () String)
(declare-fun var2 () String)
(declare-fun var3 () String)
(declare-fun var4 () String)
(declare-fun var5 () String)
(declare-fun var6 () String)
(declare-fun var7 () String)
(declare-fun var8 () String)
(declare-fun var9 () String)
(declare-fun var10 () String)
(declare-fun var11 () String)
(declare-fun var12 () String)
(declare-fun var13 () String)
(declare-fun var14 () String)
(declare-fun var15 () String)
(declare-fun var16 () String)
(declare-fun var17 () String)
(declare-fun var18 () String)
(declare-fun var19 () String)
(declare-fun var20 () String)
(declare-fun var21 () String)
(declare-fun var22 () String)
(declare-fun var23 () String)
(declare-fun var24 () String)
(declare-fun var25 () String)
(declare-fun var26 () String)
(declare-fun var27 () String)
(declare-fun var28 () String)
(declare-fun var29 () String)
(declare-fun var30 () String)
(declare-fun var31 () String)
(declare-fun var32 () String)
(declare-fun var33 () String)
(declare-fun var34 () String)
(declare-fun var35 () String)
(declare-fun var36 () String)
(declare-fun var37 () String)
(declare-fun var38 () String)
(declare-fun var39 () String)
(declare-fun var40 () String)
(declare-fun var41 () String)
(declare-fun var42 () String)
(declare-fun var43 () String)
(declare-fun var44 () String)
(declare-fun var45 () String)
(declare-fun var46 () String)
(declare-fun var47 () String)
(declare-fun var48 () String)
(declare-fun var49 () String)
(declare-fun var50 () String)
(declare-fun var51 () String)
(declare-fun var52 () String)
(declare-fun var53 () String)
(declare-fun var54 () String)
(declare-fun var55 () String)
(declare-fun var56 () String)
(declare-fun var57 () String)
(declare-fun var58 () String)
(declare-fun var59 () String)
(declare-fun var60 () String)
(assert (= var0 (str.++ var1 var2)))
(assert (= var2 (str.++ var3 var4)))
(assert (= var4 (str.++ var5 var6)))
(assert (= var6 (str.++ var7 var8)))
(assert (= var8 (str.++ var9 var10)))
(assert (= var10 (str.++ var11 var12)))
(assert (= var12 (str.++ var13 var14)))
(assert (= var14 (str.++ var15 var16)))
(assert (= var16 (str.++ var17 var18)))
(assert (= var18 (str.++ var19 var20)))
(assert (= var20 (str.++ var21 var22)))
(assert (= var22 (str.++ var23 var24)))
(assert (= var24 (str.++ var25 var26)))
(assert (= var26 (str.++ var27 var28)))
(assert (= var28 (str.++ var29 var30)))
(assert (= var30 (str.++ var31 var32)))
(assert (= var32 (str.++ var33 var34)))
(assert (= var34 (str.++ var35 var36)))
(assert (= var36 (str.++ var37 var38)))
(assert (= var38 (str.++ var39 var40)))
(assert (= var40 (str.++ var41 var42)))
(assert (= var42 (str.++ var43 var44)))
(assert (= var44 (str.++ var45 var46)))
(assert (= var46 (str.++ var47 var48)))
(assert (= var48 (str.++ var49 var50)))
(assert (= var50 (str.++ var51 var52)))
(assert (= var52 (str.++ var53 var54)))
(assert (= var54 (str.++ var55 var56)))
(assert (= var56 (str.++ var57 var58)))
(assert (= var58 (str.++ var59 var60)))
(assert (= var0 "solution"))
(assert (= "*" (str.at var52 631)))
(assert (= "I" (str.at var31 117)))
(assert (= "~" (str.at var12 199)))
(assert (= "'" (str.at var57 277)))
(assert (= "J" (str.at var5 722)))
(assert (= "*" (str.at var33 786)))
(assert (= "B" (str.at var18 42)))
(assert (= "S" (str.at var11 36)))
(assert (= "^" (str.at var56 970)))
(assert (= "y" (str.at var48 920)))
(assert (= "Y" (str.at var59 589)))
(assert (= "6" (str.at var30 220)))
(assert (= "A" (str.at var30 734)))
(assert (= ")" (str.at var10 454)))
(assert (= "'" (str.at var9 584)))
(assert (= "Q" (str.at var32 855)))
(assert (= ">" (str.at var33 567)))
(assert (= "y" (str.at var29 163)))
(assert (= "1" (str.at var30 187)))
(assert (= ">" (str.at var49 319)))
(assert (= "F" (str.at var55 606)))
(assert (= "V" (str.at var52 663)))
(assert (= "5" (str.at var38 85)))
(assert (= "&" (str.at var47 523)))
(assert (= ")" (str.at var51 732)))
(assert (= "F" (str.at var3 519)))
(assert (= "q" (str.at var36 719)))
(assert (= "'" (str.at var56 447)))
(assert (= "J" (str.at var58 194)))
(assert (= "O" (str.at var34 209)))
(assert (= "5" (str.at var53 283)))
(assert (= "i" (str.at var14 606)))
(assert (= "d" (str.at var20 14)))
(assert (= "w" (str.at var24 756)))
(assert (= "?" (str.at var1 124)))
(assert (= "," (str.at var33 489)))
(assert (= "." (str.at var1 372)))
(assert (= "L" (str.at var44 735)))
(assert (= "<" (str.at var29 861)))
(assert (= "u" (str.at var36 969)))
(assert (= "o" (str.at var17 252)))
(assert (= "j" (str.at var52 331)))
(assert (= "P" (str.at var32 893)))
(assert (= "I" (str.at var6 163)))
(assert (= "3" (str.at var32 835)))
(assert (= "." (str.at var44 738)))
(assert (= "8" (str.at var43 297)))
(assert (= "v" (str.at var43 405)))
(assert (= "." (str.at var33 276)))
(assert (= "g" (str.at var29 22)))
(assert (= "G" (str.at var37 710)))
(assert (= "Y" (str.at var10 194)))
(assert (= "e" (str.at var1 993)))
(assert (= "v" (str.at var44 461)))
(assert (= "-" (str.at var28 54)))
(assert (= "/" (str.at var8 327)))
(assert (= "q" (str.at var52 56)))
(assert (= "F" (str.at var7 816)))
(assert (= "B" (str.at var29 268)))
(assert (= "=" (str.at var19 277)))
(assert (= "~" (str.at var2 299)))
(assert (= "6" (str.at var0 230)))
(assert (= "v" (str.at var45 966)))
(assert (= "J" (str.at var3 534)))
(assert (= "1" (str.at var46 45)))
(assert (= "2" (str.at var48 965)))
(assert (= "H" (str.at var8 591)))
(assert (= "D" (str.at var2 362)))
(assert (= "X" (str.at var6 523)))
(assert (= "/" (str.at var11 256)))
(assert (= "`" (str.at var6 93)))
(assert (= "H" (str.at var5 387)))
(assert (= "<" (str.at var19 795)))
(assert (= "Z" (str.at var0 333)))
(assert (= "N" (str.at var42 49)))
(assert (= "h" (str.at var38 236)))
(assert (= "B" (str.at var50 802)))
(assert (= "#" (str.at var26 729)))
(assert (= "Z" (str.at var8 682)))
(assert (= "a" (str.at var59 839)))
(assert (= "l" (str.at var1 171)))
(assert (= ":" (str.at var15 814)))
(assert (= "7" (str.at var42 674)))
(assert (= "L" (str.at var16 657)))
(assert (= "z" (str.at var57 578)))
(assert (= "L" (str.at var39 932)))
(assert (= "X" (str.at var11 423)))
(assert (= "-" (str.at var16 396)))
(assert (= "l" (str.at var8 838)))
(assert (= "[" (str.at var59 493)))
(assert (= "p" (str.at var32 914)))
(assert (= "t" (str.at var48 508)))
(assert (= "X" (str.at var40 486)))
(assert (= "u" (str.at var57 436)))
(assert (= "B" (str.at var60 535)))
(assert (= "H" (str.at var21 539)))
(assert (= "s" (str.at var60 207)))
(assert (= "G" (str.at var28 842)))
(assert (= "O" (str.at var6 410)))
(assert (= """" (str.at var31 477)))
(assert (= "~" (str.at var43 85)))
(assert (= "_" (str.at var55 619)))
(assert (= "J" (str.at var22 68)))
(assert (= ":" (str.at var2 288)))
(assert (= "S" (str.at var43 663)))
(assert (= "1" (str.at var21 426)))
(assert (= "Z" (str.at var53 92)))
(assert (= "." (str.at var29 483)))
(assert (= "C" (str.at var46 176)))
(assert (= "G" (str.at var52 860)))
(assert (= "2" (str.at var17 207)))
(assert (= "j" (str.at var2 476)))
(assert (= "l" (str.at var13 813)))
(assert (= "K" (str.at var2 255)))
(assert (= """" (str.at var45 413)))
(assert (= "j" (str.at var19 158)))
(assert (= "K" (str.at var12 502)))
(assert (= "<" (str.at var49 472)))
(assert (= "P" (str.at var7 293)))
(assert (= "F" (str.at var57 474)))
(assert (= "j" (str.at var13 448)))
(assert (= "=" (str.at var6 364)))
(assert (= "-" (str.at var16 926)))
(assert (= "^" (str.at var55 353)))
(assert (= "I" (str.at var60 870)))
(assert (= "W" (str.at var51 365)))
(assert (= "7" (str.at var14 894)))
(assert (= """" (str.at var38 501)))
(assert (= "." (str.at var20 374)))
(assert (= "B" (str.at var37 532)))
(assert (= "\\" (str.at var1 85)))
(assert (= "N" (str.at var47 816)))
(assert (= "/" (str.at var8 734)))
(assert (= "~" (str.at var20 842)))
(assert (= "<" (str.at var42 279)))
(assert (= "h" (str.at var42 907)))
(assert (= "|" (str.at var55 47)))
(assert (= "/" (str.at var14 173)))
(assert (= "Y" (str.at var21 39)))
(assert (= "S" (str.at var60 863)))
(assert (= "A" (str.at var18 350)))
(assert (= "2" (str.at var6 605)))
(assert (= "{" (str.at var45 700)))
(assert (= "{" (str.at var29 102)))
(assert (= "u" (str.at var9 606)))
(assert (= "I" (str.at var50 449)))
(assert (= "_" (str.at var17 300)))
(assert (= "\\" (str.at var20 456)))
(assert (= "`" (str.at var60 511)))
(assert (= "z" (str.at var23 73)))
(assert (= "i" (str.at var55 107)))
(assert (= "@" (str.at var22 433)))
(assert (= "-" (str.at var0 968)))
(assert (= "b" (str.at var30 921)))
(assert (= "\\" (str.at var44 269)))
(assert (= "8" (str.at var44 925)))
(assert (= "V" (str.at var39 128)))
(assert (= "x" (str.at var33 726)))
(assert (= "*" (str.at var47 417)))
(assert (= "t" (str.at var31 615)))
(assert (= "g" (str.at var43 344)))
(assert (= "d" (str.at var29 446)))
(assert (= "E" (str.at var50 301)))
(assert (= "&" (str.at var16 640)))
(assert (= "Y" (str.at var20 948)))
(assert (= "&" (str.at var25 767)))
(assert (= "r" (str.at var14 129)))
(assert (= "`" (str.at var9 973)))
(assert (= "9" (str.at var58 549)))
(assert (= "3" (str.at var44 69)))
(assert (= ":" (str.at var60 414)))
(assert (= "8" (str.at var22 824)))
(assert (= "-" (str.at var15 402)))
(assert (= """" (str.at var37 143)))
(assert (= "7" (str.at var59 299)))
(assert (= "5" (str.at var57 638)))
(assert (= "<" (str.at var20 477)))
(assert (= "o" (str.at var8 812)))
(assert (= "%" (str.at var42 85)))
(assert (= "E" (str.at var11 369)))
(assert (= "%" (str.at var55 509)))
(assert (= "3" (str.at var13 495)))
(assert (= """" (str.at var2 148)))
(assert (= "o" (str.at var6 616)))
(assert (= "U" (str.at var29 501)))
(assert (= "Y" (str.at var11 775)))
(assert (= "T" (str.at var1 890)))
(assert (= "M" (str.at var35 578)))
(assert (= "j" (str.at var26 108)))
(assert (= "0" (str.at var19 955)))
(assert (= "!" (str.at var38 466)))
(assert (= "Q" (str.at var41 891)))
(assert (= "u" (str.at var3 826)))
(assert (= "H" (str.at var19 464)))
(assert (= "$" (str.at var28 667)))
(assert (= "F" (str.at var11 952)))
(assert (= "#" (str.at var24 908)))
(assert (= "}" (str.at var26 634)))
(assert (= "." (str.at var4 955)))
(assert (= "&" (str.at var9 808)))
(assert (= "_" (str.at var5 823)))
(assert (= "D" (str.at var32 182)))
(assert (= "0" (str.at var24 90)))
(assert (= "~" (str.at var38 518)))
(assert (= "`" (str.at var24 677)))
(assert (= "Y" (str.at var5 403)))
(assert (= "v" (str.at var19 781)))
(assert (= ")" (str.at var27 773)))
(assert (= "v" (str.at var54 247)))
(assert (= "o" (str.at var16 643)))
(assert (= "k" (str.at var56 570)))
(assert (= "*" (str.at var32 824)))
(assert (= "`" (str.at var19 344)))
(assert (= ";" (str.at var40 494)))
(assert (= "M" (str.at var59 717)))
(assert (= "Y" (str.at var28 732)))
(assert (= ">" (str.at var0 495)))
(assert (= "2" (str.at var31 271)))
(assert (= "B" (str.at var2 733)))
(assert (= "~" (str.at var4 347)))
(assert (= "T" (str.at var1 587)))
(assert (= "Z" (str.at var33 208)))
(assert (= "[" (str.at var11 88)))
(assert (= "]" (str.at var50 604)))
(assert (= "e" (str.at var56 754)))
(assert (= "I" (str.at var60 317)))
(assert (= "&" (str.at var30 126)))
(assert (= "l" (str.at var13 961)))
(assert (= "B" (str.at var9 390)))
(assert (= "8" (str.at var17 37)))
(assert (= "(" (str.at var36 587)))
(assert (= "4" (str.at var58 636)))
(assert (= "u" (str.at var34 384)))
(assert (= "V" (str.at var51 822)))
(assert (= "d" (str.at var46 309)))
(assert (= """" (str.at var32 375)))
(assert (= "~" (str.at var14 273)))
(assert (= "N" (str.at var9 217)))
(assert (= "*" (str.at var46 352)))
(assert (= "f" (str.at var60 676)))
(assert (= "," (str.at var53 593)))
(assert (= "8" (str.at var25 442)))
(assert (= "p" (str.at var38 228)))
(assert (= "v" (str.at var38 923)))
(assert (= "4" (str.at var20 449)))
(assert (= "k" (str.at var34 708)))
(assert (= "x" (str.at var42 847)))
(assert (= "3" (str.at var25 141)))
(assert (= ")" (str.at var15 299)))
(assert (= "P" (str.at var22 398)))
(assert (= "b" (str.at var15 955)))
(assert (= "G" (str.at var11 75)))
(assert (= "q" (str.at var0 568)))
(assert (= "h" (str.at var29 667)))
(assert (= "-" (str.at var34 526)))
(assert (= "0" (str.at var34 579)))
(assert (= "y" (str.at var10 736)))
(assert (= "J" (str.at var45 124)))
(assert (= "H" (str.at var29 836)))
(assert (= "c" (str.at var10 383)))
(assert (= "," (str.at var30 561)))
(assert (= "I" (str.at var18 396)))
(assert (= "'" (str.at var0 672)))
(assert (= "(" (str.at var37 74)))
(assert (= "p" (str.at var19 212)))
(assert (= "M" (str.at var55 927)))
(assert (= "S" (str.at var50 649)))
(assert (= "M" (str.at var2 550)))
(assert (= "r" (str.at var22 389)))
(assert (= "'" (str.at var44 414)))
(assert (= "q" (str.at var29 682)))
(assert (= "E" (str.at var35 168)))
(assert (= "I" (str.at var59 381)))
(assert (= "4" (str.at var7 666)))
(assert (= "n" (str.at var47 822)))
(assert (= "-" (str.at var46 247)))
(assert (= "V" (str.at var56 928)))
(assert (= "=" (str.at var44 488)))
(assert (= "h" (str.at var15 788)))
(assert (= "Z" (str.at var45 792)))
(assert (= "W" (str.at var13 643)))
(assert (= "y" (str.at var9 432)))
(assert (= "4" (str.at var24 24)))
(assert (= "b" (str.at var8 395)))
(assert (= "i" (str.at var23 199)))
(assert (= "3" (str.at var54 669)))
(assert (= "R" (str.at var0 589)))
(assert (= "S" (str.at var3 7)))
(assert (= "b" (str.at var18 222)))
(assert (= "4" (str.at var51 708)))
(assert (= "_" (str.at var25 315)))
(assert (= "j" (str.at var58 900)))
(assert (= "_" (str.at var44 728)))
(assert (= "p" (str.at var48 980)))
(assert (= "e" (str.at var19 898)))
(assert (= "T" (str.at var3 435)))
(assert (= "g" (str.at var42 68)))
(assert (= "T" (str.at var55 37)))
(assert (= "M" (str.at var8 412)))
(assert (= "B" (str.at var13 855)))
(assert (= "B" (str.at var53 190)))
(assert (= "F" (str.at var10 231)))
(assert (= "r" (str.at var46 413)))
(assert (= "8" (str.at var17 761)))
(assert (= "e" (str.at var20 216)))
(assert (= "U" (str.at var54 999)))
(assert (= "6" (str.at var36 358)))
(assert (= "t" (str.at var5 2)))
(assert (= "k" (str.at var18 531)))
(assert (= "u" (str.at var12 306)))
(assert (= "[" (str.at var39 144)))
(assert (= ")" (str.at var19 652)))
(assert (= "&" (str.at var7 86)))
(assert (= "<" (str.at var57 763)))
(assert (= "i" (str.at var1 347)))
(assert (= "`" (str.at var41 556)))
(assert (= "p" (str.at var31 809)))
(assert (= "U" (str.at var46 694)))
(assert (= "Q" (str.at var9 424)))
(assert (= "6" (str.at var16 198)))
(assert (= ">" (str.at var43 676)))
(assert (= "<" (str.at var14 845)))
(assert (= "J" (str.at var39 50)))
(assert (= "a" (str.at var57 864)))
(assert (= "(" (str.at var18 855)))
(assert (= "t" (str.at var42 578)))
(assert (= "6" (str.at var18 986)))
(assert (= "a" (str.at var35 252)))
(assert (= "M" (str.at var29 39)))
(assert (= "*" (str.at var3 824)))
(assert (= "@" (str.at var33 3)))
(assert (= "s" (str.at var16 196)))
(assert (= ">" (str.at var31 417)))
(assert (= "$" (str.at var28 934)))
(assert (= ">" (str.at var30 189)))
(assert (= "-" (str.at var55 416)))
(assert (= "(" (str.at var60 879)))
(assert (= "a" (str.at var17 249)))
(assert (= "K" (str.at var25 998)))
(assert (= "E" (str.at var44 239)))
(assert (= "T" (str.at var0 217)))
(assert (= "@" (str.at var56 121)))
(assert (= "]" (str.at var36 647)))
(assert (= "]" (str.at var13 201)))
(assert (= "v" (str.at var52 29)))
(assert (= "m" (str.at var20 171)))
(assert (= "U" (str.at var28 262)))
(assert (= "g" (str.at var40 187)))
(assert (= "O" (str.at var23 80)))
(assert (= "r" (str.at var46 901)))
(assert (= "R" (str.at var33 2)))
(assert (= "X" (str.at var46 332)))
(assert (= "1" (str.at var2 875)))
(assert (= "5" (str.at var35 35)))
(assert (= ":" (str.at var51 287)))
(assert (= "I" (str.at var10 42)))
(assert (= ":" (str.at var41 569)))
(assert (= "`" (str.at var53 646)))
(assert (= "D" (str.at var18 626)))
(assert (= """" (str.at var14 64)))
(assert (= ":" (str.at var31 384)))
(assert (= "j" (str.at var15 238)))
(assert (= "+" (str.at var58 521)))
(assert (= "+" (str.at var19 443)))
(assert (= "T" (str.at var13 657)))
(assert (= "[" (str.at var59 608)))
(assert (= "D" (str.at var40 947)))
(assert (= "1" (str.at var36 362)))
(assert (= "T" (str.at var50 582)))
(assert (= "=" (str.at var59 108)))
(assert (= "{" (str.at var24 790)))
(assert (= "o" (str.at var13 528)))
(assert (= ">" (str.at var39 14)))
(assert (= "A" (str.at var10 852)))
(assert (= "a" (str.at var40 501)))
(assert (= "#" (str.at var19 236)))
(assert (= "J" (str.at var34 529)))
(assert (= "C" (str.at var9 741)))
(assert (= ")" (str.at var36 154)))
(assert (= "U" (str.at var11 382)))
(assert (= "V" (str.at var24 913)))
(assert (= "$" (str.at var20 550)))
(assert (= "S" (str.at var49 229)))
(assert (= "n" (str.at var7 726)))
(assert (= "x" (str.at var28 100)))
(assert (= "|" (str.at var25 305)))
(assert (= "6" (str.at var36 530)))
(assert (= "{" (str.at var5 19)))
(assert (= "~" (str.at var58 421)))
(assert (= "|" (str.at var37 424)))
(assert (= "c" (str.at var27 665)))
(assert (= "'" (str.at var32 124)))
(assert (= "G" (str.at var28 878)))
(assert (= "D" (str.at var60 70)))
(assert (= "[" (str.at var11 426)))
(assert (= "k" (str.at var46 496)))
(assert (= "]" (str.at var56 539)))
(assert (= "Q" (str.at var15 186)))
(assert (= "n" (str.at var47 735)))
(assert (= "Z" (str.at var54 19)))
(assert (= "F" (str.at var20 901)))
(assert (= "." (str.at var37 3)))
(assert (= "^" (str.at var19 851)))
(assert (= "*" (str.at var36 768)))
(assert (= "u" (str.at var19 645)))
(assert (= "}" (str.at var60 323)))
(assert (= "Z" (str.at var9 715)))
(assert (= "'" (str.at var54 313)))
(assert (= "F" (str.at var41 642)))
(assert (= "^" (str.at var14 477)))
(assert (= "U" (str.at var35 54)))
(assert (= "D" (str.at var51 717)))
(assert (= "9" (str.at var16 499)))
(assert (= "m" (str.at var42 683)))
(assert (= "_" (str.at var50 379)))
(assert (= "p" (str.at var1 992)))
(assert (= "J" (str.at var10 570)))
(assert (= "4" (str.at var58 835)))
(assert (= "+" (str.at var48 233)))
(assert (= "K" (str.at var34 360)))
(assert (= "%" (str.at var54 831)))
(assert (= "#" (str.at var39 715)))
(assert (= "0" (str.at var34 328)))
(assert (= "t" (str.at var34 39)))
(assert (= "L" (str.at var7 842)))
(assert (= "+" (str.at var16 459)))
(assert (= "#" (str.at var14 699)))
(assert (= "e" (str.at var43 295)))
(assert (= "M" (str.at var56 433)))
(assert (= "\\" (str.at var33 851)))
(assert (= "\\" (str.at var42 177)))
(assert (= "5" (str.at var0 955)))
(assert (= "p" (str.at var58 737)))
(assert (= "7" (str.at var59 200)))
(assert (= "!" (str.at var19 557)))
(assert (= "5" (str.at var38 417)))
(assert (= "G" (str.at var54 817)))
(assert (= "p" (str.at var46 169)))
(assert (= "n" (str.at var8 384)))
(assert (= "v" (str.at var59 601)))
(assert (= "=" (str.at var33 210)))
(assert (= "_" (str.at var56 41)))
(assert (= """" (str.at var22 84)))
(assert (= "W" (str.at var14 920)))
(assert (= "/" (str.at var35 766)))
(assert (= "O" (str.at var6 550)))
(assert (= "2" (str.at var22 239)))
(assert (= "k" (str.at var0 516)))
(assert (= "q" (str.at var44 740)))
(assert (= "s" (str.at var3 619)))
(assert (= "Z" (str.at var38 101)))
(assert (= "9" (str.at var37 344)))
(assert (= "<" (str.at var54 906)))
(assert (= "@" (str.at var16 485)))
(assert (= "F" (str.at var23 864)))
(assert (= "\\" (str.at var24 283)))
(assert (= "$" (str.at var24 491)))
(assert (= "P" (str.at var53 316)))
(assert (= "K" (str.at var58 534)))
(assert (= "P" (str.at var44 522)))
(assert (= "1" (str.at var2 126)))
(assert (= "=" (str.at var30 624)))
(assert (= "Q" (str.at var25 346)))
(assert (= "*" (str.at var18 871)))
(assert (= "l" (str.at var41 795)))
(assert (= "0" (str.at var4 647)))
(assert (= "W" (str.at var19 640)))
(assert (= "s" (str.at var12 662)))
(assert (= "d" (str.at var19 430)))
(assert (= "&" (str.at var3 499)))
(assert (= "y" (str.at var42 46)))
(assert (= "#" (str.at var18 282)))
(assert (= "c" (str.at var3 102)))
(assert (= "&" (str.at var36 549)))
(assert (= "L" (str.at var24 797)))
(assert (= "S" (str.at var36 30)))
(assert (= "i" (str.at var19 722)))
(assert (= "p" (str.at var22 2)))
(assert (= "2" (str.at var54 89)))
(assert (= "}" (str.at var58 860)))
(assert (= "R" (str.at var6 90)))
(assert (= "Q" (str.at var5 603)))
(assert (= "u" (str.at var43 962)))
(assert (= "\\" (str.at var4 333)))
(assert (= "U" (str.at var21 646)))
(assert (= "P" (str.at var3 676)))
(assert (= "*" (str.at var47 338)))
(assert (= "S" (str.at var37 79)))
(assert (= "z" (str.at var10 38)))
(assert (= "p" (str.at var55 986)))
(assert (= "0" (str.at var11 496)))
(assert (= "v" (str.at var3 992)))
(assert (= "%" (str.at var19 33)))
(assert (= "z" (str.at var15 279)))
(assert (= "o" (str.at var25 472)))
(assert (= ":" (str.at var60 745)))
(assert (= "%" (str.at var12 820)))
(assert (= "F" (str.at var0 316)))
(assert (= "`" (str.at var47 74)))
(assert (= "]" (str.at var40 147)))
(assert (= "w" (str.at var42 373)))
(assert (= "?" (str.at var17 211)))
(assert (= "y" (str.at var43 95)))
(assert (= "z" (str.at var29 971)))
(assert (= "f" (str.at var7 104)))
(assert (= "b" (str.at var34 837)))
(assert (= """" (str.at var6 593)))
(assert (= "`" (str.at var31 724)))
(assert (= "E" (str.at var20 645)))
(assert (= "\\" (str.at var59 392)))
(assert (= "+" (str.at var36 109)))
(assert (= "Y" (str.at var6 827)))
(assert (= "u" (str.at var8 603)))
(assert (= "J" (str.at var44 55)))
(assert (= "d" (str.at var26 451)))
(assert (= "/" (str.at var45 736)))
(assert (= "^" (str.at var13 692)))
(assert (= "]" (str.at var28 640)))
(assert (= "3" (str.at var30 418)))
(assert (= "*" (str.at var21 728)))
(assert (= "l" (str.at var51 915)))
(assert (= ")" (str.at var37 465)))
(assert (= "S" (str.at var20 188)))
(assert (= "1" (str.at var56 953)))
(assert (= "{" (str.at var50 615)))
(assert (= "D" (str.at var9 922)))
(assert (= "Q" (str.at var32 665)))
(assert (= "|" (str.at var57 60)))
(assert (= "|" (str.at var18 120)))
(assert (= "Z" (str.at var47 571)))
(assert (= "L" (str.at var12 528)))
(assert (= "*" (str.at var35 1)))
(assert (= "-" (str.at var32 15)))
(assert (= "1" (str.at var58 830)))
(assert (= "p" (str.at var47 540)))
(assert (= "'" (str.at var36 4)))
(assert (= "|" (str.at var42 322)))
(assert (= ":" (str.at var40 869)))
(assert (= "_" (str.at var8 54)))
(assert (= "U" (str.at var49 552)))
(assert (= "6" (str.at var10 238)))
(assert (= "k" (str.at var43 43)))
(assert (= "&" (str.at var29 797)))
(assert (= "B" (str.at var57 522)))
(assert (= "H" (str.at var49 176)))
(assert (= "B" (str.at var53 382)))
(assert (= "*" (str.at var25 396)))
(assert (= "F" (str.at var38 566)))
(assert (= "o" (str.at var23 306)))
(assert (= "F" (str.at var11 655)))
(assert (= "f" (str.at var52 655)))
(assert (= "'" (str.at var57 67)))
(assert (= "." (str.at var39 403)))
(assert (= "6" (str.at var8 752)))
(assert (= "/" (str.at var39 370)))
(assert (= "]" (str.at var58 132)))
(assert (= "`" (str.at var32 277)))
(assert (= "6" (str.at var59 332)))
(assert (= "3" (str.at var30 810)))
(assert (= "d" (str.at var35 403)))
(assert (= "7" (str.at var7 250)))
(assert (= "&" (str.at var29 67)))
(assert (= "[" (str.at var54 837)))
(assert (= "^" (str.at var5 729)))
(assert (= "8" (str.at var55 946)))
(assert (= "9" (str.at var60 899)))
(assert (= "K" (str.at var51 529)))
(assert (= "[" (str.at var12 96)))
(assert (= "H" (str.at var38 353)))
(assert (= ";" (str.at var3 476)))
(assert (= ">" (str.at var53 269)))
(assert (= "q" (str.at var26 262)))
(assert (= "(" (str.at var9 690)))
(assert (= "3" (str.at var14 401)))
(assert (= "I" (str.at var33 413)))
(assert (= "j" (str.at var28 392)))
(assert (= "d" (str.at var37 105)))
(assert (= "W" (str.at var2 553)))
(assert (= "x" (str.at var23 567)))
(assert (= "P" (str.at var3 623)))
(assert (= "i" (str.at var20 465)))
(assert (= "M" (str.at var31 555)))
(assert (= "#" (str.at var4 549)))
(assert (= "$" (str.at var32 240)))
(assert (= "Z" (str.at var35 756)))
(assert (= "w" (str.at var11 440)))
(assert (= "s" (str.at var51 296)))
(assert (= "#" (str.at var12 379)))
(assert (= "C" (str.at var36 88)))
(assert (= "Q" (str.at var2 9)))
(assert (= "J" (str.at var52 464)))
(assert (= "6" (str.at var59 928)))
(assert (= "H" (str.at var31 221)))
(assert (= "o" (str.at var42 473)))
(assert (= "(" (str.at var59 623)))
(assert (= "R" (str.at var35 985)))
(assert (= "Q" (str.at var6 313)))
(assert (= "b" (str.at var42 621)))
(assert (= "F" (str.at var40 523)))
(assert (= "@" (str.at var21 49)))
(assert (= "i" (str.at var7 705)))
(assert (= "F" (str.at var57 636)))
(assert (= "Y" (str.at var39 73)))
(assert (= "r" (str.at var37 175)))
(assert (= """" (str.at var35 17)))
(assert (= "R" (str.at var11 33)))
(assert (= ")" (str.at var2 394)))
(assert (= "C" (str.at var21 978)))
(assert (= "-" (str.at var47 853)))
(assert (= "N" (str.at var20 498)))
(assert (= "g" (str.at var50 921)))
(assert (= "V" (str.at var39 798)))
(assert (= "6" (str.at var10 368)))
(assert (= ">" (str.at var35 619)))
(assert (= "$" (str.at var30 304)))
(assert (= ":" (str.at var27 128)))
(assert (= "%" (str.at var25 423)))
(assert (= ")" (str.at var14 503)))
(assert (= "=" (str.at var47 486)))
(assert (= "y" (str.at var27 875)))
(assert (= ":" (str.at var42 104)))
(assert (= "g" (str.at var37 866)))
(assert (= "N" (str.at var46 58)))
(assert (= "[" (str.at var51 779)))
(assert (= "#" (str.at var11 518)))
(assert (= "W" (str.at var24 31)))
(assert (= "$" (str.at var1 24)))
(assert (= "Y" (str.at var26 731)))
(assert (= "X" (str.at var21 503)))
(assert (= "G" (str.at var54 739)))
(assert (= "~" (str.at var19 811)))
(assert (= "E" (str.at var27 768)))
(assert (= "y" (str.at var33 753)))
(assert (= "i" (str.at var49 406)))
(assert (= "H" (str.at var20 506)))
(assert (= "[" (str.at var35 581)))
(assert (= "T" (str.at var12 794)))
(assert (= "#" (str.at var42 80)))
(assert (= "z" (str.at var30 671)))
(assert (= "^" (str.at var25 488)))
(assert (= "I" (str.at var48 37)))
(assert (= "z" (str.at var5 478)))
(assert (= "U" (str.at var15 57)))
(assert (= "U" (str.at var43 590)))
(assert (= "`" (str.at var1 109)))
(assert (= "j" (str.at var49 68)))
(assert (= "y" (str.at var32 152)))
(assert (= "P" (str.at var60 580)))
(assert (= "L" (str.at var46 608)))
(assert (= "{" (str.at var33 60)))
(assert (= "&" (str.at var28 572)))
(assert (= "Z" (str.at var2 706)))
(assert (= "`" (str.at var37 91)))
(assert (= "*" (str.at var21 413)))
(assert (= """" (str.at var11 788)))
(assert (= "3" (str.at var34 832)))
(assert (= "M" (str.at var49 224)))
(assert (= "n" (str.at var36 862)))
(assert (= "P" (str.at var34 860)))
(assert (= "<" (str.at var57 590)))
(assert (= "|" (str.at var21 515)))
(assert (= "y" (str.at var31 1)))
(assert (= "~" (str.at var16 366)))
(assert (= "%" (str.at var53 386)))
(assert (= "3" (str.at var36 283)))
(assert (= "3" (str.at var56 435)))
(assert (= "h" (str.at var51 715)))
(assert (= "1" (str.at var54 962)))
(assert (= "?" (str.at var47 391)))
(assert (= "W" (str.at var17 228)))
(assert (= "?" (str.at var51 285)))
(assert (= "u" (str.at var16 445)))
(assert (= "o" (str.at var52 823)))
(assert (= "6" (str.at var56 789)))
(assert (= "C" (str.at var16 220)))
(assert (= "k" (str.at var42 959)))
(assert (= "j" (str.at var45 508)))
(assert (= "d" (str.at var9 610)))
(assert (= "R" (str.at var5 174)))
(assert (= "F" (str.at var7 542)))
(assert (= "<" (str.at var27 915)))
(assert (= "!" (str.at var36 608)))
(assert (= "z" (str.at var59 824)))
(assert (= "]" (str.at var52 611)))
(assert (= "+" (str.at var38 931)))
(assert (= "%" (str.at var49 661)))
(assert (= "$" (str.at var43 339)))
(assert (= "j" (str.at var29 127)))
(assert (= "&" (str.at var29 400)))
(assert (= "t" (str.at var16 827)))
(assert (= "C" (str.at var0 225)))
(assert (= "^" (str.at var5 979)))
(assert (= "(" (str.at var49 475)))
(assert (= "`" (str.at var3 352)))
(assert (= "$" (str.at var27 79)))
(assert (= "b" (str.at var20 827)))
(assert (= "~" (str.at var44 411)))
(assert (= "S" (str.at var50 598)))
(assert (= "'" (str.at var8 728)))
(assert (= "a" (str.at var26 661)))
(assert (= "5" (str.at var15 64)))
(assert (= "M" (str.at var33 812)))
(assert (= "U" (str.at var11 976)))
(assert (= "}" (str.at var24 582)))
(assert (= "A" (str.at var15 623)))
(assert (= ")" (str.at var28 365)))
(assert (= "[" (str.at var58 664)))
(assert (= "B" (str.at var23 349)))
(assert (= "Y" (str.at var40 103)))
(assert (= "d" (str.at var52 600)))
(assert (= "R" (str.at var6 789)))
(assert (= "C" (str.at var53 573)))
(assert (= "J" (str.at var11 760)))
(assert (= "d" (str.at var7 114)))
(assert (= """" (str.at var21 640)))
(assert (= "=" (str.at var41 680)))
(assert (= ")" (str.at var37 58)))
(assert (= "]" (str.at var51 479)))
(assert (= "h" (str.at var36 231)))
(assert (= "X" (str.at var6 855)))
(assert (= ":" (str.at var9 373)))
(assert (= "D" (str.at var5 135)))
(assert (= "[" (str.at var50 780)))
(assert (= "1" (str.at var50 987)))
(assert (= "a" (str.at var53 991)))
(assert (= "_" (str.at var39 401)))
(assert (= "$" (str.at var4 79)))
(assert (= "3" (str.at var2 984)))
(assert (= "s" (str.at var50 425)))
(assert (= ":" (str.at var29 665)))
(assert (= "W" (str.at var1 931)))
(assert (= "1" (str.at var39 958)))
(assert (= "e" (str.at var2 240)))
(assert (= "7" (str.at var46 601)))
(assert (= "P" (str.at var22 520)))
(assert (= "W" (str.at var22 70)))
(assert (= "w" (str.at var49 248)))
(assert (= "9" (str.at var55 808)))
(assert (= "z" (str.at var14 905)))
(assert (= "*" (str.at var57 614)))
(assert (= "d" (str.at var9 410)))
(assert (= "G" (str.at var51 303)))
(assert (= "o" (str.at var45 8)))
(assert (= "U" (str.at var27 740)))
(assert (= "i" (str.at var3 687)))
(assert (= "y" (str.at var32 193)))
(assert (= "S" (str.at var36 728)))
(assert (= "R" (str.at var35 461)))
(assert (= "R" (str.at var29 637)))
(assert (= "0" (str.at var52 435)))
(assert (= """" (str.at var29 165)))
(assert (= "p" (str.at var14 865)))
(assert (= "c" (str.at var60 695)))
(assert (= "h" (str.at var49 972)))
(assert (= "v" (str.at var34 654)))
(assert (= "C" (str.at var24 237)))
(assert (= "\\" (str.at var14 516)))
(assert (= "[" (str.at var49 258)))
(assert (= "]" (str.at var32 82)))
(assert (= "'" (str.at var26 995)))
(assert (= "!" (str.at var12 238)))
(assert (= "]" (str.at var22 836)))
(assert (= "L" (str.at var14 799)))
(assert (= "*" (str.at var41 935)))
(assert (= "D" (str.at var35 958)))
(assert (= "s" (str.at var26 219)))
(assert (= "+" (str.at var6 755)))
(assert (= "t" (str.at var53 183)))
(assert (= "5" (str.at var32 881)))
(assert (= "n" (str.at var53 638)))
(assert (= "2" (str.at var33 496)))
(assert (= "&" (str.at var6 219)))
(assert (= "r" (str.at var23 224)))
(assert (= "t" (str.at var42 425)))
(assert (= "R" (str.at var25 702)))
(assert (= "3" (str.at var39 243)))
(assert (= "3" (str.at var14 35)))
(assert (= "0" (str.at var23 96)))
(assert (= "f" (str.at var13 926)))
(assert (= "G" (str.at var49 863)))
(assert (= "o" (str.at var49 874)))
(assert (= "*" (str.at var46 329)))
(assert (= "K" (str.at var34 833)))
(assert (= "Y" (str.at var9 772)))
(assert (= "/" (str.at var59 354)))
(assert (= "g" (str.at var47 601)))
(assert (= "C" (str.at var51 172)))
(assert (= "%" (str.at var21 367)))
(assert (= "Z" (str.at var49 656)))
(assert (= "^" (str.at var47 341)))
(assert (= "4" (str.at var28 961)))
(assert (= "u" (str.at var11 888)))
(assert (= ">" (str.at var58 351)))
(assert (= "^" (str.at var29 590)))
(assert (= "[" (str.at var1 578)))
(assert (= "R" (str.at var6 586)))
(assert (= "!" (str.at var30 443)))
(assert (= "_" (str.at var21 242)))
(assert (= "f" (str.at var22 483)))
(assert (= "`" (str.at var13 686)))
(assert (= "|" (str.at var10 980)))
(check-sat)